1 1 -2 0
1 1 3 0
1 1 4 0
1 2 1 0
1 -2 -5 0
1 6 -7 0
1 8 9 0
1 8 -6 0
1 -7 10 0
1 -7 11 0
1 7 12 0
1 5 10 0
1 -5 7 0
1 -5 -13 0
1 5 -6 0
1 -14 2 0
1 -14 1 0
1 3 14 0
1 3 15 0
1 3 -16 0
1 -3 1 0
1 -13 -17 0
1 13 -16 0
1 18 -7 0
1 18 17 0
1 -19 20 0
1 11 -21 0
1 11 22 0
1 -11 -7 0
1 -11 -23 0
1 -11 5 0
1 -23 -24 0
1 23 -11 0
1 23 25 0
1 -23 13 0
1 -23 6 0
1 26 18 0
1 26 27 0
1 26 23 0
1 17 -28 0
1 17 11 0
1 17 -8 0
1 9 29 0
1 9 -8 0
1 -9 -13 0
1 -30 -10 0
1 -31 24 0
1 -31 23 0
1 24 20 0
1 -20 24 0
1 -20 -31 0
1 20 32 0
1 20 33 0
1 -22 -30 0
1 -22 31 0
1 34 24 0
1 -34 35 0
1 34 -36 0
1 -34 -27 0
1 34 37 0
1 34 -19 0
1 -35 -30 0
1 35 36 0
1 35 -31 0
1 -35 -19 0
1 35 -34 0
1 35 -38 0
1 -4 -39 0
1 -4 -40 0
1 -41 39 0
1 41 2 0
1 42 43 0
1 42 -44 0
1 -45 -43 0
1 -45 44 0
1 45 46 0
1 -45 42 0
1 -39 47 0
1 39 45 0
1 -39 44 0
1 -39 42 0
1 44 -21 0
1 44 -42 0
1 48 -49 0
1 -48 4 0
1 -40 50 0
1 40 51 0
1 -40 -52 0
1 40 42 0
1 40 4 0
1 -16 -39 0
1 -16 -53 0
1 -16 -54 0
1 -16 44 0
1 16 -55 0
1 53 -39 0
1 53 -18 0
1 -15 -56 0
1 15 44 0
1 15 -55 0
1 15 -57 0
1 21 39 0
1 -21 -11 0
1 21 -43 0
1 21 -14 0
1 -21 -3 0
1 -54 46 0
1 54 28 0
1 -54 10 0
1 54 -15 0
1 46 -58 0
1 -43 55 0
1 55 -53 0
1 -55 45 0
1 -55 -59 0
1 -12 7 0
1 12 60 0
1 -10 47 0
1 -10 14 0
1 -10 12 0
1 -10 57 0
1 -10 3 0
1 61 -54 0
1 61 62 0
1 -61 46 0
1 61 63 0
1 28 -9 0
1 -28 62 0
1 28 -56 0
1 28 -17 0
1 -56 61 0
1 -56 12 0
1 -56 -38 0
1 -56 64 0
1 -57 10 0
1 57 -21 0
1 -57 -61 0
1 57 12 0
1 -62 -65 0
1 62 -66 0
1 60 -10 0
1 -60 62 0
1 60 67 0
1 60 -68 0
1 -27 9 0
1 -27 -69 0
1 -27 63 0
1 27 64 0
1 -64 26 0
1 64 -69 0
1 -64 -17 0
1 -36 -70 0
1 36 69 0
1 36 -71 0
1 38 72 0
1 -73 -74 0
1 73 -36 0
1 -73 -27 0
1 73 -75 0
1 72 -76 0
1 72 -77 0
1 72 -74 0
1 72 73 0
1 72 -38 0
1 69 -28 0
1 69 -77 0
1 69 -61 0
1 69 -66 0
1 -63 77 0
1 63 3 0
1 78 -29 0
1 -78 70 0
1 -78 65 0
1 78 25 0
1 33 70 0
1 33 71 0
1 -33 -34 0
1 -74 -29 0
1 -74 71 0
1 74 25 0
1 74 79 0
1 80 32 0
1 -80 -81 0
1 -25 70 0
1 -25 -82 0
1 -25 23 0
1 25 -80 0
1 -70 74 0
1 -70 -78 0
1 -70 -36 0
1 -70 -33 0
1 70 38 0
1 -71 -29 0
1 -71 77 0
1 -71 -78 0
1 -71 83 0
1 -71 38 0
1 29 84 0
1 29 74 0
1 29 -83 0
1 -29 -38 0
1 -82 85 0
1 82 32 0
1 -86 70 0
1 -86 -87 0
1 -86 88 0
1 -32 89 0
1 -32 85 0
1 -32 -90 0
1 -32 20 0
1 -85 -86 0
1 85 -22 0
1 -85 82 0
1 91 35 0
1 -91 -86 0
1 91 -82 0
1 91 74 0
1 -92 93 0
1 -92 94 0
1 -95 96 0
1 -95 -93 0
1 97 98 0
1 97 96 0
1 97 99 0
1 97 100 0
1 -100 -98 0
1 100 101 0
1 -94 -102 0
1 -94 -103 0
1 -94 -104 0
1 -94 105 0
1 94 106 0
1 -94 -52 0
1 94 -97 0
1 -94 92 0
1 96 50 0
1 -96 -100 0
1 96 52 0
1 93 102 0
1 -93 100 0
1 -93 -107 0
1 -98 108 0
1 98 -93 0
1 -98 -107 0
1 98 -109 0
1 -52 -103 0
1 -52 110 0
1 52 109 0
1 -103 -99 0
1 -103 111 0
1 103 -101 0
1 103 -110 0
1 103 -112 0
1 -105 -48 0
1 -105 -96 0
1 -105 113 0
1 50 114 0
1 50 113 0
1 50 112 0
1 112 115 0
1 -112 -116 0
1 112 -47 0
1 112 101 0
1 -112 105 0
1 -112 97 0
1 101 -50 0
1 -101 -59 0
1 -101 52 0
1 110 115 0
1 110 50 0
1 110 52 0
1 -99 -50 0
1 99 -103 0
1 99 -100 0
1 -99 110 0
1 -99 -117 0
1 -51 -47 0
1 51 43 0
1 -51 -112 0
1 -47 -43 0
1 -47 113 0
1 47 -118 0
1 -47 -55 0
1 -59 -114 0
1 59 119 0
1 -59 -120 0
1 59 55 0
1 59 121 0
1 -116 120 0
1 -116 -112 0
1 -116 -122 0
1 -114 50 0
1 114 123 0
1 118 -50 0
1 -118 124 0
1 -122 115 0
1 -122 125 0
1 122 126 0
1 -122 117 0
1 -122 59 0
1 -113 47 0
1 113 -127 0
1 -124 114 0
1 124 49 0
1 124 128 0
1 124 -54 0
1 124 118 0
1 -124 117 0
1 124 -60 0
1 -58 -114 0
1 -58 -124 0
1 58 -120 0
1 67 -129 0
1 -67 -130 0
1 -68 -60 0
1 68 38 0
1 -128 116 0
1 -128 -39 0
1 -128 -67 0
1 128 -68 0
1 120 -128 0
1 -120 131 0
1 120 -68 0
1 -49 -132 0
1 49 133 0
1 -119 116 0
1 -119 134 0
1 -119 -135 0
1 -119 126 0
1 119 -136 0
1 -119 123 0
1 65 126 0
1 65 120 0
1 -65 -137 0
1 65 -60 0
1 65 -57 0
1 -66 128 0
1 66 138 0
1 66 -129 0
1 66 -60 0
1 131 74 0
1 -131 139 0
1 -131 -69 0
1 131 137 0
1 131 -81 0
1 131 -140 0
1 81 141 0
1 -81 -69 0
1 -81 130 0
1 -81 80 0
1 81 63 0
1 129 142 0
1 129 -65 0
1 129 81 0
1 -137 129 0
1 137 -75 0
1 138 -43 0
1 -138 65 0
1 -138 -67 0
1 -138 -130 0
1 -138 -66 0
1 -138 -68 0
1 -130 143 0
1 130 -138 0
1 130 -144 0
1 130 136 0
1 77 -139 0
1 77 69 0
1 77 145 0
1 -77 63 0
1 75 72 0
1 -75 139 0
1 -75 69 0
1 -75 90 0
1 75 137 0
1 75 -136 0
1 87 -76 0
1 -87 -29 0
1 87 -86 0
1 87 -83 0
1 87 137 0
1 -87 -140 0
1 83 87 0
1 83 129 0
1 -83 -141 0
1 -139 146 0
1 -139 147 0
1 -139 -77 0
1 -139 131 0
1 139 148 0
1 139 -140 0
1 140 -131 0
1 140 149 0
1 -141 -150 0
1 141 -148 0
1 141 -75 0
1 -145 -142 0
1 -145 -60 0
1 147 70 0
1 147 -151 0
1 -147 71 0
1 -152 70 0
1 152 -79 0
1 152 -140 0
1 -152 153 0
1 -146 -84 0
1 -146 -154 0
1 146 -139 0
1 -146 155 0
1 -149 -84 0
1 149 91 0
1 -149 156 0
1 -149 -79 0
1 -155 76 0
1 155 87 0
1 155 157 0
1 155 -149 0
1 -155 158 0
1 -76 72 0
1 -76 146 0
1 76 159 0
1 -76 -87 0
1 -76 -149 0
1 76 -155 0
1 76 -152 0
1 -76 -158 0
1 151 87 0
1 151 158 0
1 -151 -153 0
1 151 160 0
1 -153 161 0
1 153 -162 0
1 153 151 0
1 153 -158 0
1 89 155 0
1 -89 156 0
1 -157 76 0
1 157 154 0
1 163 -84 0
1 -163 -154 0
1 -163 -164 0
1 163 165 0
1 -163 166 0
1 -163 -167 0
1 -168 -89 0
1 168 169 0
1 168 -170 0
1 -168 -149 0
1 -168 25 0
1 168 171 0
1 -154 172 0
1 -154 -157 0
1 154 -149 0
1 -154 173 0
1 156 146 0
1 -156 84 0
1 -156 162 0
1 156 71 0
1 -156 -174 0
1 -156 158 0
1 84 -146 0
1 84 -29 0
1 84 -169 0
1 -84 175 0
1 84 -149 0
1 -84 -156 0
1 84 176 0
1 84 158 0
1 -171 164 0
1 -171 -170 0
1 -170 -177 0
1 -170 162 0
1 -170 166 0
1 170 -171 0
1 173 -178 0
1 178 -179 0
1 -179 180 0
1 179 -178 0
1 179 -32 0
1 -166 -181 0
1 -166 182 0
1 166 -79 0
1 -183 -184 0
1 183 185 0
1 183 186 0
1 -187 -188 0
1 189 -190 0
1 189 100 0
1 -189 -188 0
1 -184 191 0
1 -184 -192 0
1 184 -109 0
1 184 -183 0
1 -193 -111 0
1 193 185 0
1 190 189 0
1 190 194 0
1 -190 -187 0
1 -186 195 0
1 186 187 0
1 109 111 0
1 -109 184 0
1 -109 -188 0
1 -109 52 0
1 -109 196 0
1 -109 -197 0
1 111 -103 0
1 111 184 0
1 111 109 0
1 111 197 0
1 107 -98 0
1 107 191 0
1 -191 50 0
1 191 -198 0
1 -191 93 0
1 191 -193 0
1 191 -196 0
1 -199 102 0
1 199 -121 0
1 -199 -104 0
1 -199 107 0
1 197 200 0
1 197 201 0
1 -197 191 0
1 197 111 0
1 197 -189 0
1 197 -199 0
1 188 -200 0
1 188 -196 0
1 -188 111 0
1 -188 189 0
1 188 107 0
1 188 -187 0
1 196 -189 0
1 -196 -188 0
1 104 98 0
1 104 -99 0
1 104 199 0
1 104 51 0
1 -102 202 0
1 -102 -98 0
1 -102 199 0
1 102 203 0
1 -102 -104 0
1 -121 -108 0
1 121 198 0
1 -121 -59 0
1 201 202 0
1 -201 121 0
1 -201 -110 0
1 -203 102 0
1 -203 -121 0
1 -202 -204 0
1 202 104 0
1 202 -205 0
1 -198 -206 0
1 -198 121 0
1 198 -207 0
1 208 -209 0
1 -208 -210 0
1 208 201 0
1 -208 -102 0
1 -208 -211 0
1 208 207 0
1 117 -99 0
1 117 110 0
1 -117 112 0
1 117 122 0
1 -115 200 0
1 115 -101 0
1 115 117 0
1 212 202 0
1 212 -108 0
1 -212 213 0
1 -212 214 0
1 212 215 0
1 -212 -203 0
1 -212 -216 0
1 212 -106 0
1 212 -217 0
1 205 -218 0
1 205 -214 0
1 -205 212 0
1 -205 106 0
1 106 201 0
1 106 -212 0
1 106 121 0
1 -106 219 0
1 213 -220 0
1 -213 212 0
1 213 219 0
1 213 -205 0
1 216 115 0
1 216 108 0
1 -216 -206 0
1 216 -221 0
1 -108 -206 0
1 108 216 0
1 108 -219 0
1 -126 -214 0
1 126 -65 0
1 -123 -213 0
1 -123 -119 0
1 123 -207 0
1 135 -218 0
1 -135 -222 0
1 -135 -223 0
1 135 119 0
1 135 133 0
1 -135 -125 0
1 -133 127 0
1 133 223 0
1 -133 119 0
1 -133 224 0
1 -224 -135 0
1 -224 -212 0
1 224 -144 0
1 -224 -136 0
1 224 -133 0
1 214 -134 0
1 -214 205 0
1 217 -218 0
1 217 225 0
1 -218 -226 0
1 -218 227 0
1 218 205 0
1 134 128 0
1 -134 -214 0
1 -134 120 0
1 136 128 0
1 -136 -138 0
1 136 223 0
1 -136 120 0
1 -136 -130 0
1 -136 -224 0
1 -228 132 0
1 -228 229 0
1 -228 87 0
1 -228 -230 0
1 144 138 0
1 -144 228 0
1 144 -214 0
1 -144 127 0
1 144 231 0
1 -144 83 0
1 232 -114 0
1 -232 142 0
1 223 233 0
1 223 135 0
1 223 -234 0
1 -223 -136 0
1 125 -235 0
1 125 -236 0
1 125 226 0
1 125 -134 0
1 -125 -135 0
1 -125 -237 0
1 -125 -144 0
1 127 238 0
1 -127 -228 0
1 -127 -113 0
1 -127 125 0
1 -142 226 0
1 142 -138 0
1 -142 223 0
1 -142 239 0
1 142 130 0
1 239 -142 0
1 -239 -229 0
1 -239 138 0
1 239 230 0
1 239 -231 0
1 239 -145 0
1 -233 240 0
1 233 231 0
1 233 241 0
1 233 -145 0
1 -242 -240 0
1 242 243 0
1 -242 -141 0
1 -242 -230 0
1 229 -244 0
1 229 -165 0
1 -229 -148 0
1 -229 231 0
1 -231 -229 0
1 231 242 0
1 231 239 0
1 -132 -233 0
1 132 245 0
1 -132 246 0
1 -132 -230 0
1 230 247 0
1 -230 -238 0
1 -230 -233 0
1 230 -234 0
1 -230 144 0
1 248 -89 0
1 248 -229 0
1 -248 -240 0
1 248 -243 0
1 248 231 0
1 148 -229 0
1 148 240 0
1 -148 -243 0
1 -148 -141 0
1 148 -234 0
1 148 -241 0
1 160 -229 0
1 160 -243 0
1 160 151 0
1 160 249 0
1 160 -250 0
1 -160 -167 0
1 165 -240 0
1 -165 -150 0
1 165 -251 0
1 165 246 0
1 165 151 0
1 -165 249 0
1 -165 250 0
1 243 -129 0
1 -243 -252 0
1 -241 253 0
1 -241 -162 0
1 -241 -165 0
1 241 137 0
1 -241 -254 0
1 241 -255 0
1 240 165 0
1 -240 -148 0
1 143 -165 0
1 143 -130 0
1 143 252 0
1 158 -76 0
1 158 -84 0
1 158 -162 0
1 158 151 0
1 -158 156 0
1 -158 249 0
1 158 153 0
1 -162 76 0
1 -162 170 0
1 162 -251 0
1 -162 155 0
1 -162 -241 0
1 162 158 0
1 -255 -161 0
1 -255 256 0
1 -175 -161 0
1 -175 -251 0
1 175 -156 0
1 175 -241 0
1 -251 -257 0
1 -251 181 0
1 -251 -139 0
1 -251 -165 0
1 251 -258 0
1 251 -250 0
1 -251 255 0
1 251 160 0
1 -250 -181 0
1 -250 251 0
1 250 -259 0
1 -250 158 0
1 150 -162 0
1 -150 260 0
1 150 165 0
1 150 261 0
1 -249 259 0
1 249 261 0
1 -249 252 0
1 249 255 0
1 -249 158 0
1 -176 164 0
1 176 156 0
1 176 252 0
1 169 -84 0
1 -169 -262 0
1 -169 250 0
1 182 -251 0
1 182 263 0
1 -182 -250 0
1 181 264 0
1 181 164 0
1 181 251 0
1 -181 256 0
1 -181 -262 0
1 -181 -166 0
1 181 250 0
1 -262 -180 0
1 262 181 0
1 262 -169 0
1 262 155 0
1 262 -176 0
1 -159 169 0
1 159 262 0
1 159 -265 0
1 -159 -176 0
1 -256 257 0
1 -256 -181 0
1 -256 -175 0
1 -256 259 0
1 -256 176 0
1 161 -257 0
1 161 -256 0
1 -161 -259 0
1 161 176 0
1 -161 -255 0
1 265 -159 0
1 -265 172 0
1 265 174 0
1 -265 -166 0
1 -180 179 0
1 266 159 0
1 -266 -267 0
1 -266 174 0
1 -266 268 0
1 269 -159 0
1 263 -180 0
1 -263 -181 0
1 -263 270 0
1 263 -271 0
1 263 -272 0
1 172 265 0
1 -174 269 0
1 -174 -180 0
1 174 273 0
1 -174 -274 0
1 -174 265 0
1 174 156 0
1 174 275 0
1 273 269 0
1 273 84 0
1 -273 -274 0
1 273 276 0
1 -273 182 0
1 271 276 0
1 271 -277 0
1 271 268 0
1 277 -172 0
1 -277 267 0
1 -277 278 0
1 277 268 0
1 -270 -278 0
1 270 279 0
1 272 -270 0
1 279 271 0
1 -279 -266 0
1 -279 -272 0
1 278 269 0
1 278 177 0
1 278 271 0
1 -278 -266 0
1 -278 -279 0
1 278 -272 0
1 268 -267 0
1 -268 166 0
1 267 164 0
1 -267 270 0
1 -267 -271 0
1 -267 -268 0
1 211 -208 0
1 211 195 0
1 -200 -198 0
1 200 280 0
1 200 196 0
1 -215 209 0
1 -215 -192 0
1 215 281 0
1 -215 212 0
1 -215 -282 0
1 215 195 0
1 -209 208 0
1 209 -194 0
1 -209 198 0
1 209 -195 0
1 209 280 0
1 -209 -205 0
1 192 -209 0
1 -192 184 0
1 192 -283 0
1 192 215 0
1 192 -207 0
1 280 209 0
1 -280 -222 0
1 280 206 0
1 280 -211 0
1 280 -284 0
1 194 -190 0
1 -195 -194 0
1 -195 285 0
1 195 215 0
1 206 286 0
1 -206 -126 0
1 -207 -192 0
1 -207 206 0
1 -207 198 0
1 207 -203 0
1 -207 287 0
1 -222 286 0
1 222 204 0
1 -222 135 0
1 -222 -288 0
1 222 284 0
1 -284 204 0
1 -284 -281 0
1 -284 289 0
1 -284 280 0
1 282 209 0
1 -282 286 0
1 -282 290 0
1 282 -291 0
1 282 206 0
1 -282 -199 0
1 -282 215 0
1 -282 -207 0
1 286 -292 0
1 286 -290 0
1 -286 227 0
1 286 219 0
1 281 209 0
1 -281 -206 0
1 -281 293 0
1 281 294 0
1 -281 -207 0
1 287 -209 0
1 287 206 0
1 -287 215 0
1 225 213 0
1 -225 134 0
1 -225 218 0
1 219 213 0
1 219 -218 0
1 -219 225 0
1 -291 286 0
1 -291 210 0
1 -291 204 0
1 -291 289 0
1 -227 -282 0
1 -227 -221 0
1 -288 -295 0
1 -288 225 0
1 -288 284 0
1 -204 295 0
1 204 -202 0
1 -204 226 0
1 -204 225 0
1 -204 -296 0
1 204 -219 0
1 -289 297 0
1 289 291 0
1 289 -198 0
1 -289 -298 0
1 -289 -294 0
1 289 284 0
1 -210 -295 0
1 210 -297 0
1 210 -222 0
1 210 294 0
1 226 -204 0
1 -226 142 0
1 -226 -299 0
1 226 220 0
1 -226 288 0
1 -226 -224 0
1 300 204 0
1 300 220 0
1 300 301 0
1 -236 -297 0
1 236 302 0
1 -236 -127 0
1 -236 -288 0
1 -236 221 0
1 236 -125 0
1 237 236 0
1 -237 204 0
1 -237 -298 0
1 237 301 0
1 301 -247 0
1 301 -238 0
1 -301 226 0
1 301 234 0
1 -301 -303 0
1 -220 238 0
1 220 304 0
1 220 -305 0
1 220 -246 0
1 -220 237 0
1 -220 -301 0
1 221 295 0
1 221 -296 0
1 -221 303 0
1 299 -306 0
1 -299 -295 0
1 -299 108 0
1 -299 -307 0
1 299 300 0
1 -299 227 0
1 -238 -301 0
1 -238 308 0
1 -238 125 0
1 -234 132 0
1 -234 -309 0
1 234 -223 0
1 -234 -296 0
1 -234 -230 0
1 234 308 0
1 234 -310 0
1 234 125 0
1 -247 -302 0
1 247 311 0
1 246 -220 0
1 246 312 0
1 246 230 0
1 -310 313 0
1 310 245 0
1 -310 -234 0
1 -309 214 0
1 -309 -245 0
1 309 234 0
1 309 -314 0
1 308 -238 0
1 -308 315 0
1 308 -305 0
1 308 -246 0
1 -308 234 0
1 -308 -316 0
1 308 -217 0
1 302 -247 0
1 302 317 0
1 -302 234 0
1 -245 -235 0
1 -245 318 0
1 -245 132 0
1 245 309 0
1 245 -311 0
1 314 318 0
1 -314 319 0
1 -314 309 0
1 -314 143 0
1 314 320 0
1 313 319 0
1 -313 309 0
1 -313 -143 0
1 -318 245 0
1 318 261 0
1 -311 318 0
1 -311 -321 0
1 -311 322 0
1 235 247 0
1 -235 -323 0
1 235 322 0
1 312 -321 0
1 -312 324 0
1 -312 313 0
1 312 -325 0
1 312 -326 0
1 312 314 0
1 -252 -253 0
1 252 -150 0
1 -252 176 0
1 -252 326 0
1 252 249 0
1 -253 -318 0
1 -253 243 0
1 -253 252 0
1 -261 264 0
1 -261 327 0
1 261 150 0
1 261 311 0
1 -261 -254 0
1 264 -318 0
1 264 -319 0
1 -264 327 0
1 -264 -328 0
1 -264 -329 0
1 -264 330 0
1 264 -254 0
1 -244 -331 0
1 -244 -229 0
1 244 -332 0
1 244 -252 0
1 -329 257 0
1 -329 -244 0
1 -329 -259 0
1 -329 314 0
1 319 -253 0
1 319 -313 0
1 -319 328 0
1 319 -261 0
1 328 333 0
1 -328 -264 0
1 -328 -252 0
1 -328 314 0
1 259 -250 0
1 257 180 0
1 -257 327 0
1 257 251 0
1 257 329 0
1 257 250 0
1 334 -258 0
1 -334 256 0
1 -334 266 0
1 -334 -335 0
1 334 330 0
1 -331 161 0
1 331 244 0
1 331 -329 0
1 331 330 0
1 -331 336 0
1 337 338 0
1 -337 -274 0
1 -337 259 0
1 337 -275 0
1 254 -331 0
1 254 -257 0
1 -254 -337 0
1 -254 -274 0
1 254 276 0
1 -327 -339 0
1 327 331 0
1 -327 -240 0
1 327 330 0
1 -327 340 0
1 -330 -327 0
1 330 -332 0
1 330 -261 0
1 -330 340 0
1 -276 -337 0
1 -276 260 0
1 276 254 0
1 338 -339 0
1 338 174 0
1 -338 -277 0
1 -274 337 0
1 274 -270 0
1 274 -258 0
1 -274 -341 0
1 -275 -273 0
1 275 337 0
1 275 -274 0
1 275 -254 0
1 -258 -336 0
1 336 -331 0
1 -336 -276 0
1 -336 -250 0
1 336 -275 0
1 260 -274 0
1 -260 334 0
1 260 -275 0
1 -341 338 0
1 290 286 0
1 290 -342 0
1 290 343 0
1 294 342 0
1 294 281 0
1 -294 300 0
1 294 287 0
1 -297 236 0
1 -297 -342 0
1 -297 -283 0
1 -297 -285 0
1 298 210 0
1 298 283 0
1 298 293 0
1 298 285 0
1 283 295 0
1 283 -192 0
1 283 -307 0
1 283 343 0
1 343 307 0
1 -343 -298 0
1 342 -297 0
1 342 -194 0
1 342 285 0
1 285 -290 0
1 285 195 0
1 285 -344 0
1 -295 292 0
1 295 -238 0
1 -295 -210 0
1 295 299 0
1 295 -289 0
1 295 288 0
1 295 343 0
1 296 -210 0
1 -296 -299 0
1 296 345 0
1 -296 343 0
1 306 346 0
1 306 347 0
1 306 293 0
1 -306 -348 0
1 306 -349 0
1 -307 -246 0
1 307 -293 0
1 307 -221 0
1 345 295 0
1 -345 297 0
1 345 350 0
1 292 -351 0
1 292 352 0
1 292 -298 0
1 -292 353 0
1 -293 -306 0
1 -293 281 0
1 354 -306 0
1 354 -307 0
1 303 345 0
1 303 221 0
1 305 -292 0
1 -305 299 0
1 305 -302 0
1 -305 -345 0
1 305 -349 0
1 305 308 0
1 -320 347 0
1 -320 345 0
1 -320 -348 0
1 -315 -292 0
1 -315 -347 0
1 -315 -355 0
1 -315 -356 0
1 349 -306 0
1 -349 -357 0
1 -349 358 0
1 -347 306 0
1 347 -324 0
1 -347 359 0
1 347 317 0
1 -347 315 0
1 -347 -305 0
1 347 349 0
1 347 360 0
1 347 -326 0
1 348 -306 0
1 -348 289 0
1 348 360 0
1 348 -320 0
1 -346 361 0
1 -346 -307 0
1 326 -355 0
1 -326 -304 0
1 326 -349 0
1 -326 353 0
1 326 -308 0
1 326 310 0
1 -317 235 0
1 -317 -352 0
1 317 -349 0
1 -317 -326 0
1 -317 310 0
1 -325 347 0
1 -325 324 0
1 -325 362 0
1 -325 261 0
1 324 235 0
1 324 -361 0
1 363 -324 0
1 -363 -335 0
1 -363 322 0
1 363 320 0
1 304 321 0
1 304 -315 0
1 304 -325 0
1 304 326 0
1 -304 -320 0
1 356 364 0
1 356 -358 0
1 356 365 0
1 -355 -324 0
1 -355 325 0
1 -322 235 0
1 322 -366 0
1 -321 304 0
1 -321 312 0
1 321 -328 0
1 321 -322 0
1 335 319 0
1 335 -366 0
1 335 -367 0
1 335 -328 0
1 -335 363 0
1 -333 -323 0
1 333 -368 0
1 369 -321 0
1 369 332 0
1 -369 -325 0
1 -369 -340 0
1 -366 -325 0
1 316 362 0
1 316 370 0
1 316 -335 0
1 -316 -322 0
1 -316 325 0
1 362 371 0
1 -362 -333 0
1 362 -370 0
1 -362 322 0
1 332 -372 0
1 332 244 0
1 -332 327 0
1 -332 367 0
1 -339 338 0
1 339 372 0
1 339 -327 0
1 339 -366 0
1 339 -373 0
1 339 367 0
1 339 328 0
1 374 -372 0
1 -374 -366 0
1 -374 -373 0
1 -374 -330 0
1 340 -371 0
1 340 -327 0
1 340 -330 0
1 372 -339 0
1 372 374 0
1 -372 -367 0
1 367 -339 0
1 -323 235 0
1 -323 -332 0
1 323 340 0
1 -373 323 0
1 -373 -332 0
1 353 346 0
1 353 375 0
1 353 376 0
1 -353 -326 0
1 -353 -377 0
1 -352 -377 0
1 378 -379 0
1 -378 380 0
1 -378 -377 0
1 361 379 0
1 361 -351 0
1 -361 -324 0
1 361 348 0
1 -376 361 0
1 376 -365 0
1 376 -360 0
1 376 353 0
1 -377 -368 0
1 -377 -352 0
1 375 -352 0
1 344 -361 0
1 360 379 0
1 360 -347 0
1 360 -376 0
1 -360 -380 0
1 -360 -348 0
1 -360 356 0
1 -358 379 0
1 -358 321 0
1 -358 -350 0
1 -358 -348 0
1 358 -349 0
1 358 360 0
1 -358 356 0
1 -365 376 0
1 368 351 0
1 368 -376 0
1 -368 -350 0
1 368 -357 0
1 350 -368 0
1 -350 -361 0
1 -351 -364 0
1 -351 -381 0
1 351 350 0
1 380 -358 0
1 380 360 0
1 380 378 0
1 379 -361 0
1 379 -378 0
1 379 -354 0
1 381 364 0
1 -381 382 0
1 381 -304 0
1 381 356 0
1 364 -355 0
1 364 -304 0
1 -364 -350 0
1 364 383 0
1 364 356 0
1 -364 363 0
1 364 -316 0
1 -371 351 0
1 -371 362 0
1 371 -383 0
1 371 357 0
1 -357 -364 0
1 357 -365 0
1 357 349 0
1 -359 370 0
1 359 -381 0
1 -359 365 0
1 383 370 0
1 -383 348 0
1 -383 365 0
1 382 -346 0
